InboundTrucks  = 20;
OutboundTrucks = 13;
ReleaseTime    = [45,29,59,46,44,47,52,13,44,4,58,38,47,7,41,24,29,56,21,55];
UnloadTime     = [13,5,2,10,2,2,19,4,23,5,17,3,5,5,25,8,5,12,5,4];
LoadTime       = [6,4,14,4,5,11,11,11,11,16,4,17,19];
TransferTime   = [| 2,0,2,0,0,8,0,0,1,0,0,0,0 | 0,0,0,0,0,0,0,5,0,0,4,0,0 | 0,0,0,4,0,0,0,0,0,1,0,0,0 | 0,2,0,0,0,0,0,4,5,0,2,0,0 | 0,0,0,0,0,0,0,0,4,0,5,2,0 | 0,3,0,1,0,0,0,4,0,0,5,5,0 | 0,0,0,0,0,2,1,0,0,0,0,0,0 | 0,0,5,0,0,0,0,0,12,3,0,2,0 | 0,0,2,0,0,0,0,0,3,0,0,0,0 | 0,0,0,2,0,8,0,0,0,0,11,0,0 | 11,7,1,0,0,0,0,0,7,0,7,0,2 | 0,0,3,5,0,0,5,14,0,0,0,3,0 | 0,0,0,0,0,2,0,0,3,1,0,0,0 | 0,4,0,0,0,0,0,4,0,0,0,0,0 | 0,0,0,0,0,0,0,0,3,0,0,1,0 | 0,0,0,0,0,0,0,7,0,0,0,3,14 | 0,0,0,0,0,0,0,0,0,0,1,0,0 | 2,0,5,8,0,0,0,7,0,0,0,0,4 | 0,0,0,0,0,0,8,0,0,0,3,3,0 | 0,0,0,0,0,5,1,0,3,5,0,3,0 |];
